50
4682

513 482
900 412
462 790
333 974
264 332
406 14
266 912
358 305
991 872
999 363
64 626
374 679
829 106
519 329
818 414
747 433
142 417
290 60
737 62
318 399
697 852
802 510
792 3
6 188
113 37
419 762
936 949
80 310
759 995
172 730
597 912
947 934
709 163
464 402
566 302
986 685
887 327
646 865
439 731
749 796
760 335
647 684
151 521
208 709
127 597
335 496
16 414
13 965
476 865
927 565
